Maximize

29.5 b0 + 49.5 b1 + 60.5 b2 + 10 b3 + 99.0 b4 + 10 b5


Subject to

\ === tcfg constraints ===
dSta_0 = 1
b0 - dSta_0 = 0
b0 - d0_1 = 0
b1 - d0_1 = 0
b1 - d1_4 - d1_2 = 0
b2 - d1_2 = 0
b2 - d2_3 = 0
b3 - d2_3 = 0
b4 - d1_4 = 0
b4 - d4_5 = 0
b5 - d4_5 = 0


\ === header constraints ===



\ === context constraints ===



\ === inst cache constraints ===



\ === data cache constraints ===



Generals


b0
b1
b2
b3
b4
b5
d0_1
d1_2
d1_4
d2_3
d4_5
dSta_0


End
\ total cons: 11    total vars: 12
